Day	0	Optimize a model with 8456 rows, 101652 columns and 1225165 nonzeros
Variable types: 672 continuous, 100980 integer (98880 binary)
Coefficient statistics:
  Matrix range     [1e+00, 2e+02]
  Objective range  [1e+00, 3e+03]
  Bounds range     [1e+00, 2e+02]
  RHS range        [1e+00, 8e+03]
Found heuristic solution: objective 1.08864e+06
Presolve removed 1368 rows and 13407 columns
Presolve time: 3.07s
Presolved: 7088 rows, 88245 columns, 1021367 nonzeros
Found heuristic solution: objective 878782.00000
Variable types: 0 continuous, 88245 integer (86503 binary)

Root relaxation: objective 8.679830e+05, 1189 iterations, 0.15 seconds

    Nodes    |    Current Node    |     Objective Bounds      |     Work
 Expl Unexpl |  Obj  Depth IntInf | Incumbent    BestBd   Gap | It/Node Time

     0     0 867983.000    0  170 878782.000 867983.000  1.23%     -    4s
H    0     0                    871754.00000 867983.000  0.43%     -    4s
H    0     0                    869673.00000 867983.000  0.19%     -    4s
H    0     0                    868582.00000 867983.000  0.07%     -    5s
     0     0 868567.000    0   36 868582.000 868567.000  0.00%     -    5s

Cutting planes:
  Cover: 119
  Clique: 294
  MIR: 145

Explored 0 nodes (3172 simplex iterations) in 5.84 seconds
Thread count was 1 (of 16 available processors)

Solution count 5: 868582 869673 871754 ... 1.08499e+06
Pool objective bound 868567

Optimal solution found (tolerance 1.00e-04)
Best objective 8.685820000000e+05, best bound 8.685670000000e+05, gap 0.0017%
	MIPObjVal:	868582.0	runtime:	5.84028697013855	patientsNumber:	308	room Occupancy:	0.19890260631001372	OR Occupancy:	0.17722523475730723
roomCost:	15630.0	genderPolicy:	50.0	transferCost:	900.0	delayCost:	30.0	overCrowdRisk:	2.0	overtime:	0.0	idleRoom:	173920.0	idleOR:	678050.0	eRoomIdle:	0.0	eORIdle:	0.0	roomU:	0.0	orU:	0.0
Day	1	Optimize a model with 8180 rows, 95615 columns and 1101915 nonzeros
Variable types: 648 continuous, 94967 integer (92942 binary)
Coefficient statistics:
  Matrix range     [1e+00, 2e+02]
  Objective range  [1e+00, 2e+03]
  Bounds range     [1e+00, 2e+02]
  RHS range        [1e+00, 8e+03]
Found heuristic solution: objective 979667
Presolve removed 1320 rows and 12716 columns
Presolve time: 2.72s
Presolved: 6860 rows, 82899 columns, 908653 nonzeros
Found heuristic solution: objective 783710.00000
Variable types: 0 continuous, 82899 integer (81223 binary)

Root relaxation: objective 7.735710e+05, 1262 iterations, 0.13 seconds

    Nodes    |    Current Node    |     Objective Bounds      |     Work
 Expl Unexpl |  Obj  Depth IntInf | Incumbent    BestBd   Gap | It/Node Time

     0     0 773571.000    0  108 783710.000 773571.000  1.29%     -    3s
H    0     0                    776291.00000 773571.000  0.35%     -    3s
H    0     0                    776271.00000 773571.000  0.35%     -    4s
H    0     0                    774211.00000 773571.000  0.08%     -    4s
     0     0 773971.000    0   16 774211.000 773971.000  0.03%     -    4s
     0     0 773971.000    0  134 774211.000 773971.000  0.03%     -    8s
H    0     0                    773981.00000 773971.000  0.00%     -    9s

Explored 0 nodes (5050 simplex iterations) in 9.13 seconds
Thread count was 1 (of 16 available processors)

Solution count 7: 773981 774211 776271 ... 977827
Pool objective bound 773971

Optimal solution found (tolerance 1.00e-04)
Best objective 7.739810000000e+05, best bound 7.739710000000e+05, gap 0.0013%
	MIPObjVal:	773981.0	runtime:	9.1319420337677	patientsNumber:	323	room Occupancy:	0.2030178326474623	OR Occupancy:	0.2049993387118106
roomCost:	15500.0	genderPolicy:	0.0	transferCost:	100.0	delayCost:	30.0	overCrowdRisk:	1.0	overtime:	0.0	idleRoom:	158700.0	idleOR:	599650.0	eRoomIdle:	0.0	eORIdle:	0.0	roomU:	0.0	orU:	0.0
Day	2	Optimize a model with 7927 rows, 101036 columns and 1123292 nonzeros
Variable types: 624 continuous, 100412 integer (98462 binary)
Coefficient statistics:
  Matrix range     [1e+00, 2e+02]
  Objective range  [1e+00, 2e+03]
  Bounds range     [1e+00, 2e+02]
  RHS range        [1e+00, 8e+03]
Found heuristic solution: objective 884105
Presolve removed 1365 rows and 13921 columns
Presolve time: 2.60s
Presolved: 6562 rows, 87115 columns, 919874 nonzeros
Found heuristic solution: objective 696503.00000
Variable types: 0 continuous, 87115 integer (85549 binary)

Root relaxation: objective 6.832230e+05, 1371 iterations, 0.14 seconds

    Nodes    |    Current Node    |     Objective Bounds      |     Work
 Expl Unexpl |  Obj  Depth IntInf | Incumbent    BestBd   Gap | It/Node Time

     0     0 683223.000    0  140 696503.000 683223.000  1.91%     -    3s
H    0     0                    686293.00000 683223.000  0.45%     -    3s
H    0     0                    683682.00000 683223.000  0.07%     -    4s
     0     0 683622.833    0   20 683682.000 683622.833  0.01%     -    4s

Cutting planes:
  Cover: 85
  Clique: 260
  MIR: 131

Explored 0 nodes (3212 simplex iterations) in 4.66 seconds
Thread count was 1 (of 16 available processors)

Solution count 4: 683682 686293 696503 882890 
Pool objective bound 683623

Optimal solution found (tolerance 1.00e-04)
Best objective 6.836820000000e+05, best bound 6.836230000000e+05, gap 0.0086%
	MIPObjVal:	683682.0	runtime:	4.66358494758606	patientsNumber:	361	room Occupancy:	0.18381344307270234	OR Occupancy:	0.0
roomCost:	16580.0	genderPolicy:	0.0	transferCost:	0.0	delayCost:	120.0	overCrowdRisk:	2.0	overtime:	0.0	idleRoom:	142580.0	idleOR:	524400.0	eRoomIdle:	0.0	eORIdle:	0.0	roomU:	0.0	orU:	0.0
Day	3	Optimize a model with 7648 rows, 114676 columns and 1305595 nonzeros
Variable types: 600 continuous, 114076 integer (112201 binary)
Coefficient statistics:
  Matrix range     [1e+00, 2e+02]
  Objective range  [1e+00, 2e+03]
  Bounds range     [1e+00, 2e+02]
  RHS range        [1e+00, 8e+03]
Found heuristic solution: objective 881869
Presolve removed 1220 rows and 15617 columns
Presolve time: 3.09s
Presolved: 6428 rows, 99059 columns, 1083788 nonzeros
Found heuristic solution: objective 667054.00000
Variable types: 0 continuous, 99059 integer (97504 binary)

Root relaxation: objective 6.557620e+05, 1430 iterations, 0.16 seconds

    Nodes    |    Current Node    |     Objective Bounds      |     Work
 Expl Unexpl |  Obj  Depth IntInf | Incumbent    BestBd   Gap | It/Node Time

     0     0 655762.000    0  192 667054.000 655762.000  1.69%     -    4s
H    0     0                    660302.00000 655762.000  0.69%     -    4s
H    0     0                    656537.00000 655762.000  0.12%     -    5s
     0     0 656418.242    0  137 656537.000 656418.242  0.02%     -    6s
     0     0 656418.242    0  176 656537.000 656418.242  0.02%     -   10s
     0     0 656418.242    0  160 656537.000 656418.242  0.02%     -   11s
     0     0 656418.242    0  184 656537.000 656418.242  0.02%     -   11s
     0     0 656488.652    0  156 656537.000 656488.652  0.01%     -   12s

Cutting planes:
  Gomory: 29
  Cover: 180
  Clique: 394
  MIR: 166
  GUB cover: 2
  Zero half: 1

Explored 0 nodes (8377 simplex iterations) in 12.31 seconds
Thread count was 1 (of 16 available processors)

Solution count 4: 656537 660302 667054 880654 
Pool objective bound 656489

Optimal solution found (tolerance 1.00e-04)
Best objective 6.565370000000e+05, best bound 6.564890000000e+05, gap 0.0073%
	MIPObjVal:	656537.0	runtime:	12.314330101013184	patientsNumber:	373	room Occupancy:	0.15089163237311384	OR Occupancy:	0.0
roomCost:	17060.0	genderPolicy:	0.0	transferCost:	0.0	delayCost:	275.0	overCrowdRisk:	2.0	overtime:	0.0	idleRoom:	127200.0	idleOR:	512000.0	eRoomIdle:	0.0	eORIdle:	0.0	roomU:	0.0	orU:	0.0
Day	4	Optimize a model with 7389 rows, 133268 columns and 1496573 nonzeros
Variable types: 576 continuous, 132692 integer (130892 binary)
Coefficient statistics:
  Matrix range     [1e+00, 2e+02]
  Objective range  [1e+00, 2e+03]
  Bounds range     [1e+00, 2e+02]
  RHS range        [1e+00, 8e+03]
Found heuristic solution: objective 876789
Presolve removed 1167 rows and 17346 columns
Presolve time: 3.49s
Presolved: 6222 rows, 115922 columns, 1259802 nonzeros
Found heuristic solution: objective 647923.00000
Variable types: 0 continuous, 115922 integer (114421 binary)

Root relaxation: objective 6.335140e+05, 1825 iterations, 0.21 seconds

    Nodes    |    Current Node    |     Objective Bounds      |     Work
 Expl Unexpl |  Obj  Depth IntInf | Incumbent    BestBd   Gap | It/Node Time

     0     0 633514.000    0  220 647923.000 633514.000  2.22%     -    4s
H    0     0                    639302.00000 633514.000  0.91%     -    5s
H    0     0                    638964.00000 633514.000  0.85%     -    5s
H    0     0                    634604.00000 633514.000  0.17%     -    6s
     0     0 634313.500    0  178 634604.000 634313.500  0.05%     -    6s
H    0     0                    634444.00000 634313.500  0.02%     -    8s
     0     0 634316.333    0  176 634444.000 634316.333  0.02%     -    8s
     0     0 634394.438    0  127 634444.000 634394.438  0.01%     -    9s

Cutting planes:
  Cover: 213
  Clique: 480
  MIR: 194
  GUB cover: 10

Explored 0 nodes (4894 simplex iterations) in 9.12 seconds
Thread count was 1 (of 16 available processors)

Solution count 6: 634444 634604 638964 ... 872714
Pool objective bound 634395

Optimal solution found (tolerance 1.00e-04)
Best objective 6.344440000000e+05, best bound 6.343950000000e+05, gap 0.0077%
	MIPObjVal:	634444.0	runtime:	9.127007007598877	patientsNumber:	405	room Occupancy:	0.2139917695473251	OR Occupancy:	0.1110964158180135
roomCost:	18290.0	genderPolicy:	0.0	transferCost:	0.0	delayCost:	240.0	overCrowdRisk:	4.0	overtime:	0.0	idleRoom:	111060.0	idleOR:	504850.0	eRoomIdle:	0.0	eORIdle:	0.0	roomU:	0.0	orU:	0.0
Day	5	Optimize a model with 7106 rows, 122700 columns and 1282606 nonzeros
Variable types: 552 continuous, 122148 integer (120423 binary)
Coefficient statistics:
  Matrix range     [1e+00, 2e+02]
  Objective range  [1e+00, 2e+03]
  Bounds range     [1e+00, 2e+02]
  RHS range        [1e+00, 8e+03]
Found heuristic solution: objective 774154
Presolve removed 1124 rows and 16237 columns
Presolve time: 3.59s
Presolved: 5982 rows, 106463 columns, 1065922 nonzeros
Found heuristic solution: objective 554712.00000
Variable types: 0 continuous, 106463 integer (105029 binary)

Root relaxation: objective 5.412130e+05, 1338 iterations, 0.15 seconds

    Nodes    |    Current Node    |     Objective Bounds      |     Work
 Expl Unexpl |  Obj  Depth IntInf | Incumbent    BestBd   Gap | It/Node Time

     0     0 541213.000    0  180 554712.000 541213.000  2.43%     -    4s
H    0     0                    544423.00000 541213.000  0.59%     -    4s
H    0     0                    542127.00000 541213.000  0.17%     -    5s
     0     0 542052.726    0  264 542127.000 542052.726  0.01%     -    6s
     0     0 542075.667    0   91 542127.000 542075.667  0.01%     -    6s

Cutting planes:
  Cover: 99
  Clique: 303
  MIR: 100

Explored 0 nodes (3266 simplex iterations) in 6.83 seconds
Thread count was 1 (of 16 available processors)

Solution count 4: 542127 544423 554712 769294 
Pool objective bound 542076

Optimal solution found (tolerance 1.00e-04)
Best objective 5.421270000000e+05, best bound 5.420760000000e+05, gap 0.0094%
	MIPObjVal:	542127.0	runtime:	6.833420991897583	patientsNumber:	413	room Occupancy:	0.2496570644718793	OR Occupancy:	0.2241766962042058
roomCost:	18070.0	genderPolicy:	0.0	transferCost:	0.0	delayCost:	435.0	overCrowdRisk:	2.0	overtime:	0.0	idleRoom:	97220.0	idleOR:	426400.0	eRoomIdle:	0.0	eORIdle:	0.0	roomU:	0.0	orU:	0.0
Day	6	Optimize a model with 6833 rows, 116836 columns and 1213050 nonzeros
Variable types: 528 continuous, 116308 integer (114658 binary)
Coefficient statistics:
  Matrix range     [1e+00, 2e+02]
  Objective range  [1e+00, 2e+03]
  Bounds range     [1e+00, 2e+02]
  RHS range        [1e+00, 8e+03]
Found heuristic solution: objective 672251
Presolve removed 1080 rows and 16302 columns
Presolve time: 2.67s
Presolved: 5753 rows, 100534 columns, 998034 nonzeros
Found heuristic solution: objective 467246.00000
Variable types: 0 continuous, 100534 integer (99167 binary)

Root relaxation: objective 4.491630e+05, 1478 iterations, 0.15 seconds

    Nodes    |    Current Node    |     Objective Bounds      |     Work
 Expl Unexpl |  Obj  Depth IntInf | Incumbent    BestBd   Gap | It/Node Time

     0     0 449163.000    0  168 467246.000 449163.000  3.87%     -    3s
H    0     0                    452507.00000 449163.000  0.74%     -    3s
H    0     0                    450167.00000 449163.000  0.22%     -    4s
     0     0 449939.193    0  157 450167.000 449939.193  0.05%     -    4s
H    0     0                    450018.00000 449939.193  0.02%     -    5s
     0     0 449965.000    0   94 450018.000 449965.000  0.01%     -    5s
     0     0 449985.333    0   18 450018.000 449985.333  0.01%     -    6s

Cutting planes:
  Cover: 120
  Clique: 326
  MIR: 120
  StrongCG: 3
  GUB cover: 2

Explored 0 nodes (3492 simplex iterations) in 6.12 seconds
Thread count was 1 (of 16 available processors)

Solution count 5: 450018 450167 452507 ... 665936
Pool objective bound 449986

Optimal solution found (tolerance 1.00e-04)
Best objective 4.500180000000e+05, best bound 4.499860000000e+05, gap 0.0071%
	MIPObjVal:	450018.0	runtime:	6.123680830001831	patientsNumber:	431	room Occupancy:	0.3017832647462277	OR Occupancy:	0.23145086628752812
roomCost:	17870.0	genderPolicy:	0.0	transferCost:	0.0	delayCost:	365.0	overCrowdRisk:	3.0	overtime:	0.0	idleRoom:	82880.0	idleOR:	348900.0	eRoomIdle:	0.0	eORIdle:	0.0	roomU:	0.0	orU:	0.0
Day	7	Optimize a model with 6552 rows, 107055 columns and 1049063 nonzeros
Variable types: 504 continuous, 106551 integer (104976 binary)
Coefficient statistics:
  Matrix range     [1e+00, 2e+02]
  Objective range  [1e+00, 2e+03]
  Bounds range     [1e+00, 2e+02]
  RHS range        [1e+00, 8e+03]
Found heuristic solution: objective 557908
Presolve removed 1030 rows and 17081 columns
Presolve time: 2.16s
Presolved: 5522 rows, 89974 columns, 845661 nonzeros
Found heuristic solution: objective 379230.00000
Variable types: 0 continuous, 89974 integer (88665 binary)

Root relaxation: objective 3.584196e+05, 1751 iterations, 0.15 seconds

    Nodes    |    Current Node    |     Objective Bounds      |     Work
 Expl Unexpl |  Obj  Depth IntInf | Incumbent    BestBd   Gap | It/Node Time

     0     0 358419.571    0  136 379230.000 358419.571  5.49%     -    2s
H    0     0                    361000.00000 358419.571  0.71%     -    3s
H    0     0                    359106.00000 358419.571  0.19%     -    3s
     0     0 358914.414    0  100 359106.000 358914.414  0.05%     -    4s
     0     0 358914.414    0  148 359106.000 358914.414  0.05%     -    7s
     0     0 358914.798    0   98 359106.000 358914.798  0.05%     -    7s
     0     0 358920.463    0  126 359106.000 358920.463  0.05%     -    8s
     0     0 358950.904    0   64 359106.000 358950.904  0.04%     -    8s
     0     2 358963.482    0   64 359106.000 358963.482  0.04%     -    9s
H    1     2                    358976.00000 358963.482  0.00%   468    9s
     2     2 358963.482    0  100 358976.000 358963.482  0.00%   234   10s

Explored 2 nodes (8403 simplex iterations) in 10.21 seconds
Thread count was 1 (of 16 available processors)

Solution count 5: 358976 359106 361000 ... 553338
Pool objective bound 358964

Optimal solution found (tolerance 1.00e-04)
Best objective 3.589760000000e+05, best bound 3.589640000000e+05, gap 0.0033%
	MIPObjVal:	358976.0	runtime:	10.210116863250732	patientsNumber:	441	room Occupancy:	0.3278463648834019	OR Occupancy:	0.27972490411321255
roomCost:	16960.0	genderPolicy:	0.0	transferCost:	0.0	delayCost:	485.0	overCrowdRisk:	1.0	overtime:	0.0	idleRoom:	70080.0	idleOR:	271450.0	eRoomIdle:	0.0	eORIdle:	0.0	roomU:	0.0	orU:	0.0
Day	8	Optimize a model with 6273 rows, 101010 columns and 886079 nonzeros
Variable types: 480 continuous, 100530 integer (99030 binary)
Coefficient statistics:
  Matrix range     [1e+00, 2e+02]
  Objective range  [1e+00, 2e+03]
  Bounds range     [1e+00, 2e+02]
  RHS range        [1e+00, 8e+03]
Found heuristic solution: objective 456763
Presolve removed 993 rows and 15457 columns
Presolve time: 1.88s
Presolved: 5280 rows, 85553 columns, 721258 nonzeros
Found heuristic solution: objective 291286.00000
Variable types: 0 continuous, 85553 integer (84316 binary)

Root relaxation: objective 2.713816e+05, 1724 iterations, 0.14 seconds

    Nodes    |    Current Node    |     Objective Bounds      |     Work
 Expl Unexpl |  Obj  Depth IntInf | Incumbent    BestBd   Gap | It/Node Time

     0     0 271381.571    0  108 291286.000 271381.571  6.83%     -    2s
H    0     0                    273207.00000 271381.571  0.67%     -    2s
H    0     0                    271806.00000 271381.571  0.16%     -    3s
     0     0 271743.727    0   68 271806.000 271743.727  0.02%     -    3s
     0     0 271743.727    0  100 271806.000 271743.727  0.02%     -    7s
     0     0 271743.727    0   98 271806.000 271743.727  0.02%     -    7s
     0     0 271768.244    0   78 271806.000 271768.244  0.01%     -    8s
     0     0 271778.631    0   33 271806.000 271778.631  0.01%     -    8s
     0     1 271778.707    0   33 271806.000 271778.707  0.01%     -    8s

Cutting planes:
  Cover: 83
  Clique: 324
  MIR: 49
  GUB cover: 1
  Zero half: 1
  Mod-K: 1

Explored 1 nodes (7550 simplex iterations) in 8.76 seconds
Thread count was 1 (of 16 available processors)

Solution count 5: 271806 273207 273207 ... 449638
Pool objective bound 271806

Optimal solution found (tolerance 1.00e-04)
Best objective 2.718060000000e+05, best bound 2.718060000000e+05, gap 0.0000%
	MIPObjVal:	271806.0	runtime:	8.763115167617798	patientsNumber:	453	room Occupancy:	0.36488340192043894	OR Occupancy:	0.4483533924084116
roomCost:	15680.0	genderPolicy:	50.0	transferCost:	0.0	delayCost:	650.0	overCrowdRisk:	6.0	overtime:	0.0	idleRoom:	58120.0	idleOR:	197300.0	eRoomIdle:	0.0	eORIdle:	0.0	roomU:	0.0	orU:	0.0
Day	9	Optimize a model with 5991 rows, 89195 columns and 673786 nonzeros
Variable types: 456 continuous, 88739 integer (87314 binary)
Coefficient statistics:
  Matrix range     [1e+00, 2e+02]
  Objective range  [1e+00, 2e+03]
  Bounds range     [1e+00, 2e+02]
  RHS range        [1e+00, 8e+03]
Found heuristic solution: objective 364722
Presolve removed 997 rows and 12725 columns
Presolve time: 1.38s
Presolved: 4994 rows, 76470 columns, 553173 nonzeros
Found heuristic solution: objective 225929.00000
Variable types: 0 continuous, 76470 integer (75323 binary)

Root relaxation: objective 2.031565e+05, 1749 iterations, 0.12 seconds

    Nodes    |    Current Node    |     Objective Bounds      |     Work
 Expl Unexpl |  Obj  Depth IntInf | Incumbent    BestBd   Gap | It/Node Time

     0     0 203156.500    0   92 225929.000 203156.500  10.1%     -    1s
H    0     0                    207859.00000 203156.500  2.26%     -    2s
H    0     0                    205933.00000 203156.500  1.35%     -    2s
H    0     0                    205846.00000 203156.500  1.31%     -    2s
H    0     0                    204083.00000 203156.500  0.45%     -    2s
     0     0 203950.833    0   44 204083.000 203950.833  0.06%     -    2s
     0     0 203959.167    0   42 204083.000 203959.167  0.06%     -    3s
     0     0 203973.056    0   34 204083.000 203973.056  0.05%     -    3s
     0     0 203973.056    0   77 204083.000 203973.056  0.05%     -    5s
     0     0 203973.056    0   23 204083.000 203973.056  0.05%     -    5s
     0     0 203988.889    0   27 204083.000 203988.889  0.05%     -    5s
     0     0 203997.222    0   19 204083.000 203997.222  0.04%     -    5s
     0     2 204000.000    0   19 204083.000 204000.000  0.04%     -    5s
H   63    40                    204028.00000 204026.991  0.00%   149    9s

Cutting planes:
  Gomory: 17
  Cover: 19
  Clique: 10
  MIR: 2
  Flow cover: 5

Explored 63 nodes (12887 simplex iterations) in 9.11 seconds
Thread count was 1 (of 16 available processors)

Solution count 7: 204028 204083 205846 ... 363372
Pool objective bound 204027

Optimal solution found (tolerance 1.00e-04)
Best objective 2.040280000000e+05, best bound 2.040270000000e+05, gap 0.0005%
	MIPObjVal:	204028.0	runtime:	9.115100145339966	patientsNumber:	462	room Occupancy:	0.32510288065843623	OR Occupancy:	0.0
roomCost:	14040.0	genderPolicy:	50.0	transferCost:	0.0	delayCost:	365.0	overCrowdRisk:	13.0	overtime:	30.0	idleRoom:	47080.0	idleOR:	142450.0	eRoomIdle:	0.0	eORIdle:	0.0	roomU:	0.0	orU:	0.0
Day	10	Optimize a model with 5710 rows, 99300 columns and 737177 nonzeros
Variable types: 432 continuous, 98868 integer (97518 binary)
Coefficient statistics:
  Matrix range     [1e+00, 2e+02]
  Objective range  [1e+00, 2e+03]
  Bounds range     [1e+00, 2e+02]
  RHS range        [1e+00, 8e+03]
Found heuristic solution: objective 353429
Presolve removed 886 rows and 14525 columns
Presolve time: 1.46s
Presolved: 4824 rows, 84775 columns, 606812 nonzeros
Found heuristic solution: objective 196401.00000
Variable types: 0 continuous, 84775 integer (83658 binary)

Root relaxation: objective 1.779668e+05, 1672 iterations, 0.12 seconds

    Nodes    |    Current Node    |     Objective Bounds      |     Work
 Expl Unexpl |  Obj  Depth IntInf | Incumbent    BestBd   Gap | It/Node Time

     0     0 177966.786    0  106 196401.000 177966.786  9.39%     -    2s
H    0     0                    181522.00000 177966.786  1.96%     -    2s
H    0     0                    179036.00000 177966.786  0.60%     -    2s
H    0     0                    178659.00000 177966.786  0.39%     -    2s
     0     0 178561.718    0   70 178659.000 178561.718  0.05%     -    3s
     0     0 178597.222    0   45 178659.000 178597.222  0.03%     -    3s
     0     0 178612.778    0   28 178659.000 178612.778  0.03%     -    4s
     0     0 178612.778    0   20 178659.000 178612.778  0.03%     -    5s
     0     0 178612.778    0   30 178659.000 178612.778  0.03%     -    5s
     0     0 178624.306    0   43 178659.000 178624.306  0.02%     -    5s
     0     0 178646.281    0   18 178659.000 178646.281  0.01%     -    5s

Cutting planes:
  Gomory: 12
  Cover: 20
  Clique: 19
  MIR: 15
  GUB cover: 1

Explored 0 nodes (5906 simplex iterations) in 5.17 seconds
Thread count was 1 (of 16 available processors)

Solution count 6: 178659 178659 179036 ... 351589
Pool objective bound 178647

Optimal solution found (tolerance 1.00e-04)
Best objective 1.786590000000e+05, best bound 1.786470000000e+05, gap 0.0067%
	MIPObjVal:	178659.0	runtime:	5.172677040100098	patientsNumber:	472	room Occupancy:	0.2908093278463649	OR Occupancy:	0.0
roomCost:	12720.0	genderPolicy:	0.0	transferCost:	0.0	delayCost:	235.0	overCrowdRisk:	14.0	overtime:	90.0	idleRoom:	35800.0	idleOR:	129800.0	eRoomIdle:	0.0	eORIdle:	0.0	roomU:	0.0	orU:	0.0
Day	11	Optimize a model with 5424 rows, 116258 columns and 847870 nonzeros
Variable types: 408 continuous, 115850 integer (114575 binary)
Coefficient statistics:
  Matrix range     [1e+00, 2e+02]
  Objective range  [1e+00, 2e+03]
  Bounds range     [1e+00, 2e+02]
  RHS range        [1e+00, 8e+03]
Found heuristic solution: objective 318949
Presolve removed 826 rows and 17464 columns
Presolve time: 1.71s
Presolved: 4598 rows, 98794 columns, 692176 nonzeros
Found heuristic solution: objective 166224.00000
Variable types: 0 continuous, 98794 integer (97726 binary)

Root relaxation: objective 1.476828e+05, 1681 iterations, 0.15 seconds

    Nodes    |    Current Node    |     Objective Bounds      |     Work
 Expl Unexpl |  Obj  Depth IntInf | Incumbent    BestBd   Gap | It/Node Time

     0     0 147682.786    0  126 166224.000 147682.786  11.2%     -    2s
H    0     0                    150795.00000 147682.786  2.06%     -    2s
H    0     0                    149801.00000 147682.786  1.41%     -    2s
H    0     0                    148536.00000 147682.786  0.57%     -    3s
     0     0 148436.167    0  150 148536.000 148436.167  0.07%     -    3s
     0     0 148482.887    0   75 148536.000 148482.887  0.04%     -    4s
     0     0 148484.722    0   39 148536.000 148484.722  0.03%     -    4s
     0     0 148484.722    0   40 148536.000 148484.722  0.03%     -    5s
     0     0 148484.722    0   77 148536.000 148484.722  0.03%     -    5s
     0     0 148502.167    0   64 148536.000 148502.167  0.02%     -    5s
     0     0 148517.500    0   20 148536.000 148517.500  0.01%     -    5s
H    0     0                    148526.00000 148517.500  0.01%     -    5s

Cutting planes:
  Gomory: 8
  Cover: 22
  Clique: 35
  MIR: 23
  Zero half: 4

Explored 0 nodes (6550 simplex iterations) in 5.86 seconds
Thread count was 1 (of 16 available processors)

Solution count 7: 148526 148536 148536 ... 317074
Pool objective bound 148518

Optimal solution found (tolerance 1.00e-04)
Best objective 1.485260000000e+05, best bound 1.485180000000e+05, gap 0.0054%
	MIPObjVal:	148526.0	runtime:	5.8580169677734375	patientsNumber:	477	room Occupancy:	0.3936899862825789	OR Occupancy:	0.3604020632191509
roomCost:	11430.0	genderPolicy:	100.0	transferCost:	0.0	delayCost:	190.0	overCrowdRisk:	16.0	overtime:	90.0	idleRoom:	23700.0	idleOR:	113000.0	eRoomIdle:	0.0	eORIdle:	0.0	roomU:	0.0	orU:	0.0
Day	12	Optimize a model with 5147 rows, 92216 columns and 551789 nonzeros
Variable types: 384 continuous, 91832 integer (90632 binary)
Coefficient statistics:
  Matrix range     [1e+00, 2e+02]
  Objective range  [1e+00, 2e+03]
  Bounds range     [1e+00, 2e+02]
  RHS range        [1e+00, 8e+03]
Found heuristic solution: objective 220483
Presolve removed 779 rows and 14246 columns
Presolve time: 1.02s
Presolved: 4368 rows, 77970 columns, 440684 nonzeros
Found heuristic solution: objective 98043.000000
Variable types: 0 continuous, 77970 integer (76966 binary)

Root relaxation: objective 7.737362e+04, 1369 iterations, 0.09 seconds

    Nodes    |    Current Node    |     Objective Bounds      |     Work
 Expl Unexpl |  Obj  Depth IntInf | Incumbent    BestBd   Gap | It/Node Time

     0     0 77373.6190    0   92 98043.0000 77373.6190  21.1%     -    1s
H    0     0                    82099.000000 77373.6190  5.76%     -    1s
H    0     0                    79638.000000 77373.6190  2.84%     -    1s
H    0     0                    77978.000000 77373.6190  0.78%     -    1s
     0     0 77945.4722    0   61 77978.0000 77945.4722  0.04%     -    2s
     0     0 77953.8399    0   49 77978.0000 77953.8399  0.03%     -    2s
     0     0 77959.6667    0   37 77978.0000 77959.6667  0.02%     -    2s
H    0     0                    77972.000000 77959.6667  0.02%     -    3s
     0     0 77966.8333    0    4 77972.0000 77966.8333  0.01%     -    3s

Explored 0 nodes (3370 simplex iterations) in 3.05 seconds
Thread count was 1 (of 16 available processors)

Solution count 6: 77972 77978 79638 ... 219348
Pool objective bound 77967

Optimal solution found (tolerance 1.00e-04)
Best objective 7.797200000000e+04, best bound 7.796700000000e+04, gap 0.0064%
	MIPObjVal:	77972.0	runtime:	3.053858995437622	patientsNumber:	491	room Occupancy:	0.5171467764060357	OR Occupancy:	0.5627562491733897
roomCost:	9410.0	genderPolicy:	50.0	transferCost:	0.0	delayCost:	270.0	overCrowdRisk:	12.0	overtime:	150.0	idleRoom:	13680.0	idleOR:	54400.0	eRoomIdle:	0.0	eORIdle:	0.0	roomU:	0.0	orU:	0.0
Day	13	Optimize a model with 4831 rows, 65751 columns and 301203 nonzeros
Variable types: 360 continuous, 65391 integer (64266 binary)
Coefficient statistics:
  Matrix range     [1e+00, 2e+02]
  Objective range  [1e+00, 2e+03]
  Bounds range     [1e+00, 2e+02]
  RHS range        [1e+00, 8e+03]
Found heuristic solution: objective 114467
Presolve removed 1034 rows and 16944 columns
Presolve time: 1.14s
Presolved: 3797 rows, 48807 columns, 188802 nonzeros
Variable types: 0 continuous, 48807 integer (47977 binary)

Root relaxation: objective 2.786619e+04, 949 iterations, 0.05 seconds

    Nodes    |    Current Node    |     Objective Bounds      |     Work
 Expl Unexpl |  Obj  Depth IntInf | Incumbent    BestBd   Gap | It/Node Time

     0     0 27866.1905    0   46 114467.000 27866.1905  75.7%     -    1s
H    0     0                    29027.000000 27866.1905  4.00%     -    1s
H    0     0                    28312.000000 27866.1905  1.57%     -    1s
     0     0 28281.1111    0   23 28312.0000 28281.1111  0.11%     -    1s
     0     0 28281.1111    0   18 28312.0000 28281.1111  0.11%     -    1s
     0     0 28298.3333    0    4 28312.0000 28298.3333  0.05%     -    1s
     0     0 28298.3333    0    4 28312.0000 28298.3333  0.05%     -    2s
     0     0 28310.3333    0    6 28312.0000 28310.3333  0.01%     -    2s

Cutting planes:
  Gomory: 1
  Cover: 2

Explored 0 nodes (2414 simplex iterations) in 2.21 seconds
Thread count was 1 (of 16 available processors)

Solution count 3: 28312 29027 114467 
Pool objective bound 28311

Optimal solution found (tolerance 1.00e-04)
Best objective 2.831200000000e+04, best bound 2.831100000000e+04, gap 0.0035%
	MIPObjVal:	28312.0	runtime:	2.211266040802002	patientsNumber:	466	room Occupancy:	0.5816186556927297	OR Occupancy:	0.7842877926200238
roomCost:	5490.0	genderPolicy:	0.0	transferCost:	0.0	delayCost:	270.0	overCrowdRisk:	2.0	overtime:	150.0	idleRoom:	6100.0	idleOR:	16300.0	eRoomIdle:	0.0	eORIdle:	0.0	roomU:	0.0	orU:	0.0
Violations:	0	Total ObjVal:	69203	Runtime:	0.0	Room occupancy ratio:	0.33756632	OR occupancy ratio:	0.33849207
The dynamic result in	./Results/FS2LowO/or_pas_dept6_short01_sol0.xml	violations:	0	total ObjVal:	69203	runtime:	115.701	average_patient_number:	419
